TCS_Benchmarks/redos_fix/corpus1_output_distinct_934_933_0_0.txt
.*
(.*)((DEFAULT_DB_PREFIX="\$\(echo ~\)\/)intel)(.*)
.*